50, 10528
234, 204
468, 408
624, 544
204, 147
624, 544
544, 392
680, 490
544, 392
78, 68
68, 49
272, 196
136, 98
612, 441
136, 98
780, 680
702, 612
340, 245
272, 196
468, 408
468, 408
702, 612
546, 476
68, 49
612, 441
476, 343
408, 294
624, 544
78, 68
78, 68
136, 98
702, 612
68, 49
612, 441
544, 392
340, 245
68, 49
468, 408
408, 294
476, 343
680, 490
544, 392
408, 294
390, 340
544, 392
702, 612
156, 136
612, 441
612, 441
340, 245
612, 441
